outputs/case_448.model.txt
information_disclosed_on_website = False
written_opinions_from_directors_and_supervisors = False
statutory_standard = 150
board_approval_quorum_met = False
total_real_estate_transaction_amount = 0
single_real_estate_transaction_amount = 0
single_transaction_amount = 400000000
total_transaction_amount = 500000000
board_approval_majority_met = False
evaluation_report_provided = False
owner_equity = 8000000000/7
funds = 10000000000
capital_to_risk_capital_ratio = 200
transaction_counterparty_is_government = False
approved_by_authority = False
capital_increase_plan_executed = False
asset_transaction_procedure_compliant = False
public_tender_or_auction = False
non_related_real_estate_single_limit_low_capital_negative_equity = 1
non_related_real_estate_single_limit_low_capital_positive_equity = 1
non_related_real_estate_total_limit_high_capital = 1
other_transaction_limit_total = 1
non_related_real_estate_total_limit_low_capital_positive_equity = 1
contract_has_termination_and_exemption_clause = True
non_related_real_estate_total_limit_low_capital_negative_equity = 1
prior_total_transaction_amount = 0
prior_limit_amount = 0
no_additional_transaction = False
prior_other_transaction_limit = 1
other_transaction_limit_total_max_2b = 1
government_transaction_single_limit_min_2b = 1
non_related_real_estate_single_limit_high_capital = 1
counted_in_total_amount = False
government_transaction_exclusion = True
penalty = False
non_related_real_estate_contract_clause = True
non_related_real_estate_conditions_low_capital_negative_equity = False
other_transaction_limit_single_min_1b = 1
non_related_real_estate_conditions_low_capital_positive_equity = False
other_transaction_limit_single = 1
government_transaction_single_limit = 1